Route #1: 26 12 72 39 9 32 44 3 40 17 51 6
Route #2: 62 73 1 43 23 56 41 42 64 22 61 28 74
Route #3: 21 47 36 69 71 60 70 20 37 15 57 13 54 19 8
Route #4: 7 35 53 14 59 66 11 65 38
Route #5: 58 10 31 55 25 50 18 24 49 16 63 33
Route #6: 2 30 48 5 29 45 27 52 46 34
Route #7: 67 4 68 75
Cost 712